NAME : mEgtspf.pid13658.gtsp.139586508.tour
COMMENT : Length = 139586508
COMMENT : Found by LKH [Keld Helsgaun] Sun Apr 13 00:32:06 2025
TYPE : TOUR
DIMENSION : 74
TOUR_SECTION
1
30
27
28
29
25
26
23
24
12
13
14
11
2
8
63
64
65
66
68
69
70
67
3
45
46
43
44
6
9
42
39
40
41
47
48
49
50
4
20
21
22
19
35
36
37
38
32
33
34
31
17
18
15
16
5
71
72
73
74
10
52
53
54
51
56
57
58
55
60
61
62
59
7
-1
EOF
